NAME : traveling-santa-2018-prime-paths.30231.tour
COMMENT : Length = 30231
COMMENT : Found by LKH [Keld Helsgaun] Sun Jun 12 20:00:45 2022
TYPE : TOUR
DIMENSION : 100
TOUR_SECTION
1
33
100
53
60
47
48
98
20
50
77
30
63
84
52
65
2
51
6
42
83
3
17
12
64
75
43
92
15
71
58
95
22
76
67
26
59
89
29
46
81
27
31
68
55
44
10
56
45
57
34
8
35
28
90
87
70
21
36
69
96
94
74
41
72
40
14
85
16
91
88
61
37
11
49
62
25
78
79
23
86
54
5
93
99
7
19
97
82
18
32
9
13
66
73
80
4
38
24
39
-1
EOF
